************************************************************************
file with basedata            : md370_.bas
initial value random generator: 627009438
************************************************************************
projects                      :  1
jobs (incl. supersource/sink ):  22
horizon                       :  158
RESOURCES
  - renewable                 :  2   R
  - nonrenewable              :  2   N
  - doubly constrained        :  0   D
************************************************************************
PROJECT INFORMATION:
pronr.  #jobs rel.date duedate tardcost  MPM-Time
    1     20      0       23        8       23
************************************************************************
PRECEDENCE RELATIONS:
jobnr.    #modes  #successors   successors
   1        1          3           2   3   4
   2        3          3           5   8  11
   3        3          3           6  11  14
   4        3          3           9  10  16
   5        3          3           7  13  14
   6        3          2          10  18
   7        3          1          12
   8        3          1          16
   9        3          2          15  20
  10        3          2          13  21
  11        3          3          12  17  19
  12        3          2          20  21
  13        3          2          17  19
  14        3          3          15  17  21
  15        3          1          18
  16        3          1          18
  17        3          1          20
  18        3          1          19
  19        3          1          22
  20        3          1          22
  21        3          1          22
  22        1          0        
************************************************************************
REQUESTS/DURATIONS:
jobnr. mode duration  R 1  R 2  N 1  N 2
------------------------------------------------------------------------
  1      1     0       0    0    0    0
  2      1     4       2    0   10    8
         2     7       0    4    6    8
         3     7       0   10    6    7
  3      1     6       4    0    9    8
         2     6       0    9    8    9
         3     7       6    0    6    8
  4      1     2       8    0    1    5
         2     5       8    0    1    3
         3     6       8    0    1    2
  5      1     3       0    6    8    8
         2     5       3    0    8    8
         3     8       0    6    5    4
  6      1     5       8    0    1    5
         2     7       0    9    1    5
         3     8       7    0    1    5
  7      1     1       0    6   10    6
         2     6       9    0   10    4
         3    10       3    0   10    3
  8      1     1       0    1    6    8
         2     1       9    0    5    7
         3     6       5    0    4    6
  9      1     7       0    3   10    6
         2     7       3    0   10    6
         3    10       0    3   10    5
 10      1     7       0    6    3   10
         2     8       9    0    3    9
         3     9       0    5    1    9
 11      1     5       7    0    5   10
         2     7       0    5    3   10
         3     8       6    0    3   10
 12      1     2       7    0    3    6
         2     5       0    9    3    4
         3    10       0    8    2    4
 13      1     1       6    0    7    6
         2     5       2    0    5    3
         3     5       4    0    2    4
 14      1     2       3    0    9    9
         2     8       2    0    8    7
         3     9       1    0    8    6
 15      1     1       0    7    4    7
         2     7       0    5    2    5
         3    10       0    5    2    3
 16      1     2       5    0    9    6
         2     2       0    8    9    7
         3     7       6    0    9    5
 17      1     3       9    0    3    7
         2     5       9    0    3    5
         3     8       7    0    2    3
 18      1     4       0    5    9    6
         2     8       0    5    9    5
         3     9       0    4    8    5
 19      1     1       0    5    6    8
         2     5       0    5    5    8
         3     7       3    0    5    7
 20      1     1       0   10    6    9
         2     2       2    0    6    6
         3     7       0    4    6    5
 21      1     2       7    0    2   10
         2     5       6    0    2    7
         3     7       5    0    2    7
 22      1     0       0    0    0    0
************************************************************************
RESOURCEAVAILABILITIES:
  R 1  R 2  N 1  N 2
   21   18  114  139
************************************************************************
MAXIMAL LAGS:
from  to  type  delay
    1   12   ES      0
    1    2   ES      0
    2   12   ES      0
    1    3   ES      0
    3   12   ES      0
    1    4   ES      0
    4   12   ES      0
    1    5   ES      0
    5   12   ES      0
    1    6   ES      0
    6   12   ES      0
    1    7   ES      0
    7   12   ES      0
    1    8   ES      0
    8   12   ES      0
    1    9   ES      0
    9   12   ES      0
    1   10   ES      0
   10   12   ES      0
    1   11   ES      0
   11   12   ES      0
    1   12   ES      0
    2    5   SS    -12
    2    5   SE     -7
    2    5   ES      4
    2    5   EE      9
    2    8   SS      5
    2    8   SE    -10
    2    8   ES     -1
    2    8   EE      8
    2   11   SS     -7
    2   11   SE    -11
    2   11   ES      4
    2   11   EE      6
    3    6   SS      9
    3    6   SE     -1
    3    6   ES     -8
    3    6   EE     -9
    3   11   SS      2
    3   11   SE      0
    3   11   ES      5
    3   11   EE    -12
    3   14   SS     -9
    3   14   SE     -7
    3   14   ES      1
    3   14   EE      7
    4    9   SS      1
    4    9   SE     -7
    4    9   ES     -2
    4    9   EE    -11
    4   10   SS     -2
    4   10   SE     12
    4   10   ES    -11
    4   10   EE      3
    4   16   SS     11
    4   16   SE     -5
    4   16   ES     10
    4   16   EE     -8
    5    7   SS     -4
    5    7   SE     11
    5    7   ES      7
    5    7   EE    -10
    5   13   SS     -5
    5   13   SE      7
    5   13   ES     -3
    5   13   EE     -5
    5   14   SS    -11
    5   14   SE     -5
    5   14   ES     10
    5   14   EE     12
    6   10   SS     -7
    6   10   SE     -1
    6   10   ES    -11
    6   10   EE     11
    6   18   SS     12
    6   18   SE     -7
    6   18   ES      3
    6   18   EE     -4
    8   16   SS      7
    8   16   SE      0
    8   16   ES     -8
    8   16   EE     -5
    9   15   SS      5
    9   15   SE     -5
    9   15   ES      4
    9   15   EE     -3
    9   20   SS     -3
    9   20   SE    -11
    9   20   ES     12
    9   20   EE      9
   10   13   SS     -5
   10   13   SE      3
   10   13   ES      8
   10   13   EE      0
   10   21   SS     -1
   10   21   SE     -4
   10   21   ES     -6
   10   21   EE      7
   11   17   SS      6
   11   17   SE      6
   11   17   ES     -4
   11   17   EE     -8
   11   19   SS     11
   11   19   SE      5
   11   19   ES     12
   11   19   EE     -1
   12   20   SS     11
   12   20   SE      4
   12   20   ES    -12
   12   20   EE     -6
   12   21   SS     -5
   12   21   SE    -12
   12   21   ES      4
   12   21   EE      1
   13   17   SS      8
   13   17   SE     -4
   13   17   ES     -9
   13   17   EE     -3
   13   19   SS      5
   13   19   SE      1
   13   19   ES      8
   13   19   EE     -5
   14   15   SS     -8
   14   15   SE      6
   14   15   ES      8
   14   15   EE    -11
   14   17   SS      4
   14   17   SE     -2
   14   17   ES    -12
   14   17   EE     -2
   14   21   SS    -11
   14   21   SE     12
   14   21   ES     -4
   14   21   EE      9
   15   18   SS      4
   15   18   SE      3
   15   18   ES      9
   15   18   EE     -9
   16   18   SS     -2
   16   18   SE      6
   16   18   ES    -12
   16   18   EE     -2
   17   20   SS     -9
   17   20   SE      5
   17   20   ES     -8
   17   20   EE     -6
   18   19   SS      2
   18   19   SE      3
   18   19   ES     -7
   18   19   EE     -9
   19   22   SS    -11
   19   22   SE      7
   19   22   ES    -11
   19   22   EE      3
   20   22   SS     -4
   20   22   SE     -3
   20   22   ES     -4
   20   22   EE      3
   21   22   SS      6
   21   22   SE     10
   21   22   ES     -5
   21   22   EE      6
************************************************************************
